% File represents an instance of a Composite Structure problem to be solved by a CP framework
% Created on 2025-03-26 10:41:25.412
T = 50;
n = 16;
m = 24;
edges = [(1, 2),
(5, 6),
(9, 10),
(13, 14),
(2, 3),
(6, 7),
(10, 11),
(14, 15),
(3, 4),
(7, 8),
(11, 12),
(15, 16),
(1, 5),
(5, 9),
(13, 9),
(2, 6),
(6, 10),
(14, 10),
(3, 7),
(7, 11),
(15, 11),
(4, 8),
(8, 12),
(16, 12)];
counts = [|8, 12, 8, 22,
|6, 12, 6, 20,
|6, 12, 6, 14,
|6, 6, 6, 14,
|6, 12, 6, 20,
|6, 8, 6, 18,
|6, 6, 6, 14,
|4, 6, 4, 12,
|6, 10, 6, 16,
|6, 4, 6, 16,
|6, 2, 6, 12,
|4, 2, 4, 10,
|8, 10, 8, 16,
|6, 8, 6, 16,
|6, 8, 6, 12,
|4, 8, 4, 10|];
